WARNING: for repeatability, setting FPU to use double precision
============================[ Problem Statistics ]=============================
|                                                                             |
|  Number of variables:            50                                         |
|  Number of clauses:             218                                         |
|  Parse time:                   0.00 s                                       |
|                                                                             |
============================[ Search Statistics ]==============================
| Conflicts |          ORIGINAL         |          LEARNT          | Progress |
|           |    Vars  Clauses Literals |    Limit  Clauses Lit/Cl |          |
===============================================================================
===============================================================================
restarts              : 1
conflicts             : 49             (34242 /sec)
decisions             : 54             (0.00 % random) (37736 /sec)
propagations          : 633            (442348 /sec)
conflict literals     : 198            (12.00 % deleted)
Memory used           : 20.00 MB
CPU time              : 0.001431 s

UNSATISFIABLE
